18051
0 1 0 1 0 1 1 0 0 1 0 0 1 0 0 0 0 0 1 0 
5 18 18 1 18 6 18 6 6 5 5 6 5 6 1 3 18 18 3 18 12 3 9 18 6 3 9 9 9 12 18 3 9 18 18 18 3 18 5 18 6 5 5 6 6 5 1 6 3 18 6 5 12 18 18 1 6 12 3 5 5 1 3 3 3 12 9 18 18 18 6 9 6 6 1 12 3 6 3 3 3 5 6 5 1 18 6 5 3 1 3 5 12 9 12 3 6 5 3 5 
